<number of tasks>
20

<cycle time>
1000

<order strength>
0,5


<task times>
1 212
2 219
3 25
4 83
5 21
6 167
7 119
8 126
9 125
10 87
11 175
12 284
13 180
14 257
15 242
16 65
17 233
18 62
19 175
20 93

<precedence relations>
1,6
2,6
3,7
3,8
4,10
4,18
5,15
6,9
6,10
7,9
7,10
7,11
7,12
8,10
9,13
9,15
11,15
12,14
12,15
14,17
15,16
15,17
16,18
17,19
17,20

<end>
